4 
5  20 37 52 
6  07 22 37 52 
7  04 19 34 49 
8  04 19 34 49 
9  04 19 34 49 
10  04 19 34 49 
11  04 19 34 49 
12  04 19 34 49 
13  05 22 37 52 
14  07 22 37 52 
15  06 21 36 51 
16  06 21 36 51 
17  06 21 36 51 
18  06 21 36 51 
19  05 19 34 49 
20  06 21 36 51 
21  06 21 36 51 
22  06 21 36 51 
23  07 26 43 
0 
